2
150 2
69
30 1 11
31 1 7
32 1 8
33 1 7
34 1 7
35 1 12
36 1 7
37 1 8
38 1 8
40 1 7
41 1 10
42 1 7
43 1 6
44 1 8
45 1 5
46 1 3
47 1 6
48 1 6
49 1 10
50 1 11
52 1 6
53 1 5
54 1 6
55 1 9
56 1 9
57 1 6
58 1 4
59 1 6
60 1 7
61 1 9
62 1 5
63 1 8
64 1 2
65 1 5
66 1 5
67 1 3
68 1 8
69 1 8
70 1 3
71 1 6
72 1 8
73 1 9
74 1 9
75 1 6
76 1 5
77 1 6
78 1 9
79 1 8
80 1 5
81 1 8
82 1 15
83 1 8
84 1 8
85 1 7
86 1 7
87 1 7
88 1 6
89 1 12
90 1 5
91 1 8
92 1 11
93 1 4
94 1 17
95 1 10
96 1 7
97 1 8
98 1 7
99 1 4
100 1 2
